&projwfc
 prefix = 'Fe'
 outdir = './work'
 degauss = 0.03
/
