&control
 calculation = 'vc-relax'
 restart_mode = 'from_scratch',
 max_seconds = 80000,
 prefix = 'Fe', 
 tstress = .true.
 tprnfor = .true.
 pseudo_dir = './', 
 outdir = './work/'
 etot_conv_thr = 1.d-5
 forc_conv_thr = 1.d-4
 disk_io = 'low'
/
&system
 ibrav = 4, 
 celldm(1) =4.64, 
 celldm(3) =1.62,
 nat = 2, 
 ntyp = 1,  
 nspin= 2,
 starting_magnetization(1)=1.0,
 ecutwfc = 100.0, 
 ecutrho = 500.0,
 occupations = 'smearing'
 smearing = 'm-p'
 degauss = 0.01 
/
&electrons
 mixing_beta = 0.7
 conv_thr = 1.0d-10
/
&ions
trust_radius_max=0.01
/
&cell
 press = 0
 press_conv_thr = 1.0d-8
/
ATOMIC_SPECIES
Fe 55.845 Fe.pbe-spn-rrkjus_psl.0.2.1.UPF
ATOMIC_POSITIONS {crystal}
Fe 0.33333333	0.66666666 0.75
Fe 0.66666666   0.33333333 0.25
K_POINTS {automatic}
12 12 12 0 0 0
