 &input                                                                                           
  zasr='simple',  fildyn='Fe.dyn', flfrc='Fe444.fc', la2F=.true. 
/                                 
